000 000 000 -99 000 -99 000 -99 -99 -99 -99 -99 -99 000 000 -99 -99 -99 000 000 000 000 -99 001 000 000 000 000 -99 000 000
000 000 000 000 000 -99 000 000 -99 -99 -99 -99 -99 000 000 000 -99 -99 -99 000 000 000 -99 -99 000 000 -99 000 -99 -99 000
000 000 000 000 000 -99 000 000 000 000 -99 -99 -99 -99 000 000 000 -99 -99 -99 -99 -99 -99 000 000 000 000 000 000 -99 000
000 000 000 000 000 000 -99 000 000 000 -99 -99 -99 -99 -99 000 000 -99 -99 -99 -99 -99 -99 000 000 000 000 000 000 -99 000
000 000 000 000 000 000 000 000 000 000 -99 -99 000 -99 -99 000 000 -99 -99 -99 000 -99 -99 000 000 000 -99 -99 000 -99 000
000 000 000 000 000 000 000 000 000 000 -99 -99 000 000 -99 000 000 -99 -99 -99 000 000 000 000 000 000 -99 -99 -99 -99 000
000 000 000 000 000 000 000 000 000 -99 -99 -99 000 000 -99 000 000 000 -99 -99 000 -99 000 000 000 000 -99 -99 -99 -99 -99
000 000 000 000 000 000 000 -99 000 000 000 -99 000 -99 000 000 000 000 -99 -99 -99 000 000 000 000 000 -99 -99 -99 000 000
000 000 000 000 000 000 000 000 000 000 000 000 -99 -99 -99 -99 000 000 000 000 000 -99 000 000 001 001 000 000 -99 000 000
000 000 000 000 000 000 000 000 000 000 000 000 -99 -99 -99 000 000 000 000 000 000 000 000 000 001 001 000 000 000 000 000
000 000 000 000 000 000 000 000 000 000 000 000 000 -99 -99 000 000 000 000 000 000 000 000 001 001 001 000 000 000 000 000
000 000 000 000 000 -99 -99 000 000 000 000 000 000 000 000 000 000 000 000 000 000 000 001 001 001 000 000 000 000 000 000
000 000 000 000 000 000 000 000 -99 000 000 000 000 -99 000 000 000 000 000 000 000 000 000 001 000 000 000 000 000 000 000
000 000 000 000 000 000 000 000 -99 -99 000 000 000 000 -99 000 000 000 000 000 000 000 000 000 000 000 000 000 001 000 001
000 000 000 000 000 000 000 000 000 000 000 000 000 000 000 000 000 000 000 000 000 000 000 000 000 000 001 001 000 000 000
000 -99 000 000 000 000 000 000 000 000 000 000 000 000 000 000 000 000 000 001 001 000 002 001 001 001 001 001 000 000 000
000 000 000 000 000 000 000 000 000 000 000 000 000 000 000 000 000 001 002 001 001 001 001 003 002 002 002 002 001 000 000
000 000 000 -99 000 000 000 000 000 000 -99 -99 -99 000 000 000 000 001 002 003 003 001 003 004 002 002 002 002 002 001 002
000 000 000 000 -99 -99 000 000 000 000 -99 -99 -99 000 000 000 000 001 002 003 002 003 004 006 006 005 002 004 005 003 004
000 000 000 000 000 -99 000 000 000 000 -99 -99 -99 000 000 000 000 001 003 003 002 002 004 005 004 004 005 011 008 006 006
000 000 000 000 000 000 -99 -99 000 000 -99 -99 -99 000 000 000 000 001 003 003 002 002 003 004 003 004 005 011 008 006 006
000 000 000 000 000 000 -99 -99 000 000 -99 -99 -99 000 000 000 000 002 002 002 002 002 007 004 003 003 006 006 006 008 007
000 000 000 000 000 000 -99 000 000 -99 -99 -99 -99 -99 000 000 000 001 002 002 002 003 006 003 003 002 006 006 006 008 007
000 000 000 000 000 000 000 000 000 -99 -99 -99 -99 000 000 000 000 000 001 001 002 004 004 003 002 002 -99 -99 005 006 004
000 000 000 000 000 000 000 000 000 000 000 -99 -99 000 000 000 000 000 000 001 001 002 003 002 002 003 -99 -99 -99 005 001
000 000 000 000 -99 000 000 000 000 000 000 -99 -99 000 000 000 000 000 000 001 001 001 002 002 001 -99 -99 -99 -99 -99 000
000 000 000 000 000 000 000 000 000 000 -99 -99 -99 -99 000 000 000 000 000 000 000 000 000 001 001 -99 -99 -99 -99 -99 000
000 000 000 000 000 000 000 000 000 000 -99 -99 -99 -99 000 000 000 000 000 000 000 000 000 -99 -99 -99 -99 -99 -99 000 000
000 000 000 000 000 000 000 000 000 000 -99 -99 -99 000 000 000 000 000 000 000 000 000 -99 -99 -99 -99 -99 -99 -99 000 000
000 000 000 000 000 000 000 000 000 000 000 -99 -99 000 000 000 000 000 000 000 000 000 -99 -99 -99 -99 -99 -99 -99 -99 -99
000 000 000 000 000 000 000 000 000 000 -99 -99 000 000 000 000 000 000 000 000 000 000 -99 -99 000 -99 -99 -99 -99 -99 -99
000 000 000 000 000 000 000 000 000 000 -99 -99 000 000 000 -99 000 000 000 -99 -99 000 -99 000 000 -99 -99 -99 -99 -99 -99
000 000 000 000 000 000 000 000 000 000 -99 -99 -99 000 000 000 000 000 000 -99 -99 -99 -99 000 000 -99 -99 000 -99 -99 -99
000 000 000 000 000 000 000 000 000 -99 -99 -99 -99 000 000 000 000 000 000 000 000 -99 000 000 000 000 -99 000 000 000 -99
000 000 000 000 000 000 000 000 000 000 -99 -99 -99 000 000 000 000 -99 -99 000 000 -99 -99 000 000 000 000 000 000 000 -99
000 000 000 000 000 000 000 000 000 000 -99 -99 -99 000 000 000 000 -99 000 000 000 000 -99 000 000 000 000 000 000 000 -99
000 000 000 000 000 -99 -99 000 000 000 000 -99 -99 000 000 000 000 000 000 000 000 000 000 000 000 000 000 000 000 000 -99
000 -99 000 000 000 -99 -99 000 000 000 -99 -99 000 000 000 000 000 000 000 -99 000 -99 000 000 000 000 -99 000 000 000 -99
000 -99 000 -99 -99 -99 -99 -99 -99 000 -99 -99 -99 000 000 000 000 000 -99 -99 000 -99 000 000 000 000 -99 -99 -99 -99 -99
000 000 000 -99 -99 -99 -99 -99 -99 -99 -99 000 000 000 000 000 000 000 -99 -99 -99 000 000 000 -99 -99 -99 -99 -99 -99 -99
000 000 000 000 000 -99 -99 -99 -99 -99 000 000 000 000 000 000 000 000 -99 -99 000 000 000 000 000 -99 -99 -99 -99 -99 -99
000 000 -99 000 -99 -99 000 -99 -99 000 000 000 000 000 000 000 -99 000 000 000 000 000 000 000 000 000 -99 -99 -99 -99 -99
000 000 -99 -99 -99 000 000 -99 -99 000 000 000 000 000 000 000 000 000 000 000 000 001 000 000 000 000 -99 -99 -99 -99 -99
000 -99 -99 -99 000 000 000 000 -99 000 000 000 000 000 000 000 -99 000 000 000 001 002 001 000 000 000 -99 -99 -99 -99 -99
000 000 -99 -99 000 000 000 000 -99 000 000 000 000 000 000 000 -99 000 000 003 002 003 001 000 000 -99 -99 -99 -99 -99 -99
000 -99 -99 000 000 -99 -99 000 -99 000 000 000 -99 000 004 001 000 000 000 006 003 002 001 000 000 -99 -99 -99 -99 -99 -99
000 -99 -99 -99 -99 -99 -99 -99 -99 000 -99 000 000 000 002 001 000 000 005 003 001 001 000 000 000 000 -99 -99 -99 -99 -99
000 -99 -99 -99 -99 -99 -99 -99 000 000 -99 -99 000 000 000 000 000 002 007 002 002 001 000 000 000 000 000 -99 -99 -99 -99
000 -99 -99 -99 -99 -99 -99 -99 -99 000 -99 000 000 000 000 000 003 011 014 002 001 001 000 001 000 000 000 -99 -99 -99 -99
-99 -99 -99 -99 -99 -99 -99 -99 -99 -99 -99 000 000 000 000 000 006 009 008 002 004 000 000 000 000 000 -99 -99 -99 -99 -99
-99 -99 -99 -99 -99 -99 -99 -99 -99 -99 -99 -99 -99 -99 000 002 001 011 006 026 001 000 000 000 000 -99 -99 -99 -99 -99 -99
-99 -99 -99 -99 -99 -99 -99 -99 -99 000 -99 -99 -99 -99 000 001 001 006 024 021 001 001 000 000 000 -99 -99 -99 -99 -99 -99
-99 -99 -99 -99 -99 -99 -99 -99 -99 -99 -99 000 -99 -99 -99 000 002 001 014 003 002 002 000 000 000 -99 -99 -99 -99 -99 -99
-99 -99 -99 -99 -99 -99 -99 -99 -99 -99 -99 -99 -99 -99 -99 000 000 001 002 000 002 003 002 000 -99 -99 -99 -99 -99 -99 -99
-99 -99 -99 -99 -99 -99 -99 -99 -99 -99 -99 -99 -99 -99 -99 000 000 000 000 001 001 000 001 000 -99 000 -99 -99 -99 -99 -99
